Academic license - for non-commercial use only
Optimize a model with 620 rows, 500 columns and 20056 nonzeros
Variable types: 0 continuous, 500 integer (500 binary)
Coefficient statistics:
  Matrix range     [1e+00, 2e+01]
  Objective range  [1e+00, 3e+01]
  Bounds range     [1e+00, 1e+00]
  RHS range        [1e+00, 4e+01]
Found heuristic solution: objective 110
Presolve removed 280 rows and 179 columns
Presolve time: 0.11s
Presolved: 340 rows, 321 columns, 9490 nonzeros
Variable types: 0 continuous, 321 integer (321 binary)

Root relaxation: objective 3.485063e+01, 29 iterations, 0.00 seconds

    Nodes    |    Current Node    |     Objective Bounds      |     Work
 Expl Unexpl |  Obj  Depth IntInf | Incumbent    BestBd   Gap | It/Node Time

     0     0   34.85063    0   19  110.00000   34.85063  68.3%     -    0s
H    0     0                      47.0000000   34.85063  25.8%     -    0s
H    0     0                      46.0000000   34.85063  24.2%     -    0s
H    0     0                      45.0000000   34.85063  22.6%     -    0s
     0     0   37.02941    0   12   45.00000   37.02941  17.7%     -    0s
     0     0   37.02941    0   18   45.00000   37.02941  17.7%     -    0s
H    0     0                      43.0000000   37.02941  13.9%     -    0s
     0     0   37.70048    0   23   43.00000   37.70048  12.3%     -    0s
     0     0   37.70048    0   18   43.00000   37.70048  12.3%     -    0s
     0     0   37.71772    0   26   43.00000   37.71772  12.3%     -    0s
     0     0   38.13704    0   19   43.00000   38.13704  11.3%     -    0s
     0     0   40.66667    0   10   43.00000   40.66667  5.43%     -    0s
     0     0   40.66667    0   29   43.00000   40.66667  5.43%     -    0s
     0     0   40.66667    0   27   43.00000   40.66667  5.43%     -    0s
     0     0   41.94444    0   19   43.00000   41.94444  2.45%     -    0s

Cutting planes:
  Gomory: 1
  Cover: 2
  Clique: 10
  MIR: 1
  GUB cover: 1
  Zero half: 1

Explored 1 nodes (333 simplex iterations) in 0.33 seconds
Thread count was 8 (of 8 available processors)

Solution count 5: 43 45 46 ... 110

Optimal solution found (tolerance 1.00e-04)
Best objective 4.300000000000e+01, best bound 4.300000000000e+01, gap 0.0000%

